CrI3
   1.00000000000000     
     3.4875620478425251   -6.0300441366094120    0.0000000000000000
     3.4875620478425251    6.0300441366094120    0.0000000000000000
    -0.2451861745466657    0.0000000000000000   50.0000000000000000
   Cr   I 
     4    12
Direct
  0.0136393158285643  0.3469660876513876  0.1669766794808605
  0.3469660876513876  0.0136393158285643  0.1669766794808605
  0.0197622768656655  0.6863132324526953  0.0319571792551076
  0.6863132324526953  0.0197622768656655  0.0319571792551076
  0.6782566137860528  0.3281648450475564  0.1351851155631637
  0.6816841119122393  0.0331267452501887  0.1989138924137322
  0.3281648450475564  0.6782566137860528  0.1351851155631637
  0.0331267452501887  0.6816841119122393  0.1989138924137322
  0.0308880067565419  0.0308880067565419  0.1350019609125352
  0.3294853251959820  0.3294853251959820  0.1989849577003174
  0.3519830878760072  0.7038324149284435  0.9999652875415955
  0.3540375476455909  0.0050410209327498  0.0635575869334261
  0.7038324149284435  0.3519830878760072  0.9999652875415955
  0.0050410209327498  0.3540375476455909  0.0635575869334261
  0.9993452127325801  0.9993452127325801  0.9998966588767870
  0.7040830190403935  0.7040830190403935  0.0639149417858702
 
  0.00000000E+00  0.00000000E+00  0.00000000E+00
  0.00000000E+00  0.00000000E+00  0.00000000E+00
  0.00000000E+00  0.00000000E+00  0.00000000E+00
  0.00000000E+00  0.00000000E+00  0.00000000E+00
  0.00000000E+00  0.00000000E+00  0.00000000E+00
  0.00000000E+00  0.00000000E+00  0.00000000E+00
  0.00000000E+00  0.00000000E+00  0.00000000E+00
  0.00000000E+00  0.00000000E+00  0.00000000E+00
  0.00000000E+00  0.00000000E+00  0.00000000E+00
  0.00000000E+00  0.00000000E+00  0.00000000E+00
  0.00000000E+00  0.00000000E+00  0.00000000E+00
  0.00000000E+00  0.00000000E+00  0.00000000E+00
  0.00000000E+00  0.00000000E+00  0.00000000E+00
  0.00000000E+00  0.00000000E+00  0.00000000E+00
  0.00000000E+00  0.00000000E+00  0.00000000E+00
  0.00000000E+00  0.00000000E+00  0.00000000E+00
