CrI3
   1.00000000000000     
     3.4875620478425251   -6.0300441366094120    0.0000000000000000
     3.4875620478425251    6.0300441366094120    0.0000000000000000
    -0.2451861745466657    0.0000000000000000   50.0000000000000000
   Cr   I 
     4    12
Direct
  0.0132903279676432  0.3465297670407954  0.1669063460406314
  0.3465297670407954  0.0132903279676432  0.1669063460406314
  0.0202143433801105  0.6867991743296809  0.0320365827025801
  0.6867991743296809  0.0202143433801105  0.0320365827025801
  0.6779271837908395  0.3278272465475962  0.1351191707667281
  0.6811878856020068  0.0326290441619200  0.1988499792040610
  0.3278272465475962  0.6779271837908395  0.1351191707667281
  0.0326290441619200  0.6811878856020068  0.1988499792040610
  0.0305104663953638  0.0305104663953638  0.1348976771589539
  0.3290127125759175  0.3290127125759175  0.1989213142445735
  0.3523350749810843  0.7041486242839128  0.0000468946453662
  0.3545620557693755  0.0055401421704390  0.0636379905191036
  0.7041486242839128  0.3523350749810843  0.0000468946453662
  0.0055401421704390  0.3545620557693755  0.0636379905191036
  0.9996334772490734  0.9996334772490734  0.9999374955189967
  0.7044613376568664  0.7044613376568664  0.0639595869718304
 
  0.00000000E+00  0.00000000E+00  0.00000000E+00
  0.00000000E+00  0.00000000E+00  0.00000000E+00
  0.00000000E+00  0.00000000E+00  0.00000000E+00
  0.00000000E+00  0.00000000E+00  0.00000000E+00
  0.00000000E+00  0.00000000E+00  0.00000000E+00
  0.00000000E+00  0.00000000E+00  0.00000000E+00
  0.00000000E+00  0.00000000E+00  0.00000000E+00
  0.00000000E+00  0.00000000E+00  0.00000000E+00
  0.00000000E+00  0.00000000E+00  0.00000000E+00
  0.00000000E+00  0.00000000E+00  0.00000000E+00
  0.00000000E+00  0.00000000E+00  0.00000000E+00
  0.00000000E+00  0.00000000E+00  0.00000000E+00
  0.00000000E+00  0.00000000E+00  0.00000000E+00
  0.00000000E+00  0.00000000E+00  0.00000000E+00
  0.00000000E+00  0.00000000E+00  0.00000000E+00
  0.00000000E+00  0.00000000E+00  0.00000000E+00
