CrI3        
   1.00000000000000     
     6.9647896077706513    0.0000000000000000    0.0000000000000000
    -3.4823948038853252    6.0316847323432388    0.0000000000000000
     0.0000000000000039    0.0000000000000067   63.2778066913629189
   Cr   I 
     8    24
Direct
  0.0016929423263593  0.6715943963367037  0.0741687620409437
  0.3351696277091304  0.3383108695917291  0.0741689001486414
  0.0030076268345143  0.0002464645439131  0.1807257636538360
  0.3363387763413672  0.6670913988062526  0.1807268854560747
  0.6621718892754714  0.9917201928792928  0.2871972776652615
  0.3287197294830027  0.3249381850866493  0.2872054428547733
  0.6665118248901819  0.6698240131988626  0.3936969909682095
  0.3329812203698382  0.0030284636579604  0.3936864789992991
  0.0186749528435775  0.0052020985868264  0.0992273888505393
  0.3170359957152633  0.0048147498328744  0.0489254221301883
  0.6684473081470886  0.3563320981592863  0.0995651169972342
  0.6683867524258399  0.6526012270449955  0.0488453164275120
  0.3180850957357594  0.6548178768490239  0.0992299793769624
  0.0198771672356168  0.3562789511401634  0.0489193094315838
  0.0201654141398363  0.3345687722490668  0.2058112647870748
  0.3197701971589321  0.3335542841057604  0.1557434326063836
  0.6703608343325049  0.6850563353336456  0.2058712771884641
  0.6697944075368958  0.9825672427386855  0.1553894227661006
  0.3182426094606439  0.9823957013800864  0.2059566450238297
  0.0203239792328504  0.6840510022167893  0.1556759468093658
  0.6452630880491821  0.6583827488437233  0.3122351196771774
  0.3436143762525852  0.6581978463979044  0.2622976360995146
  0.9956660659007870  0.3068782158490380  0.3125825532093322
  0.9951797814828228  0.0074867016789031  0.2622214165631573
  0.3468740017443739  0.0095655219766673  0.3123169266761394
  0.6458052305913128  0.3089613298392243  0.2619605322229352
  0.6483690552605240  0.3361565666746612  0.4189333734625733
  0.3499237335074098  0.3365511748205191  0.3686517919721891
 -0.0001350395884555  0.9839913407874313  0.4190254514929551
  0.9996067170932639  0.6875356475479314  0.3683203610521404
  0.3512607460997894  0.6876900077643899  0.4189355081982622
  0.6494805590783864  0.9862752407477169  0.3686448867778399
 
  0.00000000E+00  0.00000000E+00  0.00000000E+00
  0.00000000E+00  0.00000000E+00  0.00000000E+00
  0.00000000E+00  0.00000000E+00  0.00000000E+00
  0.00000000E+00  0.00000000E+00  0.00000000E+00
  0.00000000E+00  0.00000000E+00  0.00000000E+00
  0.00000000E+00  0.00000000E+00  0.00000000E+00
  0.00000000E+00  0.00000000E+00  0.00000000E+00
  0.00000000E+00  0.00000000E+00  0.00000000E+00
  0.00000000E+00  0.00000000E+00  0.00000000E+00
  0.00000000E+00  0.00000000E+00  0.00000000E+00
  0.00000000E+00  0.00000000E+00  0.00000000E+00
  0.00000000E+00  0.00000000E+00  0.00000000E+00
  0.00000000E+00  0.00000000E+00  0.00000000E+00
  0.00000000E+00  0.00000000E+00  0.00000000E+00
  0.00000000E+00  0.00000000E+00  0.00000000E+00
  0.00000000E+00  0.00000000E+00  0.00000000E+00
  0.00000000E+00  0.00000000E+00  0.00000000E+00
  0.00000000E+00  0.00000000E+00  0.00000000E+00
  0.00000000E+00  0.00000000E+00  0.00000000E+00
  0.00000000E+00  0.00000000E+00  0.00000000E+00
  0.00000000E+00  0.00000000E+00  0.00000000E+00
  0.00000000E+00  0.00000000E+00  0.00000000E+00
  0.00000000E+00  0.00000000E+00  0.00000000E+00
  0.00000000E+00  0.00000000E+00  0.00000000E+00
  0.00000000E+00  0.00000000E+00  0.00000000E+00
  0.00000000E+00  0.00000000E+00  0.00000000E+00
  0.00000000E+00  0.00000000E+00  0.00000000E+00
  0.00000000E+00  0.00000000E+00  0.00000000E+00
  0.00000000E+00  0.00000000E+00  0.00000000E+00
  0.00000000E+00  0.00000000E+00  0.00000000E+00
  0.00000000E+00  0.00000000E+00  0.00000000E+00
  0.00000000E+00  0.00000000E+00  0.00000000E+00
