CrI3        
   1.00000000000000     
     6.9647896077706513    0.0000000000000000    0.0000000000000000
    -3.4823948038853252    6.0316847323432388    0.0000000000000000
     0.0000000000000039    0.0000000000000067   63.2778066913629189
   Cr   I 
     8    24
Direct
  0.0018506084980227  0.6713083331075299  0.0742178739665765
  0.3353190395181687  0.3380261332152770  0.0742131284798322
  0.0033746046923703  0.0006414429500739  0.1807849406971916
  0.3366566866615666  0.6676081705375573  0.1807838856473240
  0.6617687262822104  0.9917767400285538  0.2871112551306724
  0.3283439742181287  0.3250022478887576  0.2871208873353226
  0.6663386445866496  0.6695099295983452  0.3936584697663366
  0.3328995950447650  0.0027853778240757  0.3936567914729328
  0.0188512284316461  0.0048967471114972  0.0992816104659282
  0.3171551993167435  0.0045536670937867  0.0489732754544018
  0.6685513260776123  0.3560214512565003  0.0996145237755850
  0.6686040136908319  0.6523998568116007  0.0488935549101643
  0.3183124145522809  0.6545830512882372  0.0992740364951741
  0.0199592934005439  0.3559481087081032  0.0489740658307912
  0.0205818694479545  0.3349495701169251  0.2058663279019957
  0.3201751033814091  0.3340388325280719  0.1557916921770241
  0.6706484781478393  0.6854797035011151  0.2059268501311435
  0.6701452617933272  0.9831682113865613  0.1554448070413771
  0.3184982955972260  0.9827776489873287  0.2060528779112979
  0.0205839120831086  0.6844617031004078  0.1557421068986649
  0.6448531853100640  0.6585053112867023  0.3121689502947980
  0.3432789816028313  0.6581852521156665  0.2622166863217062
  0.9952440499841892  0.3070673448263375  0.3124970186522714
  0.9948492710937059  0.0075314702988336  0.2621369875458263
  0.3465681475821110  0.0097369878212725  0.3122523495932515
  0.6455216833844811  0.3090546839386173  0.2619032644310920
  0.6481740932837210  0.3359368649418252  0.4189062571426251
  0.3497774756795303  0.3362094549657998  0.3686130721410941
  0.9996723417716999  0.9837446310895335  0.4189798532015726
  0.9995537065198964  0.6872877863515928  0.3682894923331709
  0.3511367618770472  0.6874378900668732  0.4189040066581659
  0.6494186931549949  0.9860320619232830  0.3686116817811900
 
  0.00000000E+00  0.00000000E+00  0.00000000E+00
  0.00000000E+00  0.00000000E+00  0.00000000E+00
  0.00000000E+00  0.00000000E+00  0.00000000E+00
  0.00000000E+00  0.00000000E+00  0.00000000E+00
  0.00000000E+00  0.00000000E+00  0.00000000E+00
  0.00000000E+00  0.00000000E+00  0.00000000E+00
  0.00000000E+00  0.00000000E+00  0.00000000E+00
  0.00000000E+00  0.00000000E+00  0.00000000E+00
  0.00000000E+00  0.00000000E+00  0.00000000E+00
  0.00000000E+00  0.00000000E+00  0.00000000E+00
  0.00000000E+00  0.00000000E+00  0.00000000E+00
  0.00000000E+00  0.00000000E+00  0.00000000E+00
  0.00000000E+00  0.00000000E+00  0.00000000E+00
  0.00000000E+00  0.00000000E+00  0.00000000E+00
  0.00000000E+00  0.00000000E+00  0.00000000E+00
  0.00000000E+00  0.00000000E+00  0.00000000E+00
  0.00000000E+00  0.00000000E+00  0.00000000E+00
  0.00000000E+00  0.00000000E+00  0.00000000E+00
  0.00000000E+00  0.00000000E+00  0.00000000E+00
  0.00000000E+00  0.00000000E+00  0.00000000E+00
  0.00000000E+00  0.00000000E+00  0.00000000E+00
  0.00000000E+00  0.00000000E+00  0.00000000E+00
  0.00000000E+00  0.00000000E+00  0.00000000E+00
  0.00000000E+00  0.00000000E+00  0.00000000E+00
  0.00000000E+00  0.00000000E+00  0.00000000E+00
  0.00000000E+00  0.00000000E+00  0.00000000E+00
  0.00000000E+00  0.00000000E+00  0.00000000E+00
  0.00000000E+00  0.00000000E+00  0.00000000E+00
  0.00000000E+00  0.00000000E+00  0.00000000E+00
  0.00000000E+00  0.00000000E+00  0.00000000E+00
  0.00000000E+00  0.00000000E+00  0.00000000E+00
  0.00000000E+00  0.00000000E+00  0.00000000E+00
